<?xml version = "1.0" encoding="UTF-8" standalone="yes"?>
<CPLEXSolution version="1.2">
 <header
   problemName=""
   solutionName="p0"
   solutionIndex="-1"
   objectiveValue="29"
   solutionTypeValue="3"
   solutionTypeString="primal"
   solutionStatusValue="127"
   solutionStatusString="integer feasible solution"
   solutionMethodString="mip"
   primalFeasible="0"
   dualFeasible="0"
   writeLevel="1"/>
 <quality
   epInt="1.0000000000000001e-05"
   epRHS="9.9999999999999995e-07"
   maxIntInfeas="8.8817841970012523e-16"
   maxPrimalInfeas="7.1054273576010019e-15"
   maxX="59"
   maxSlack="23"/>
 <linearConstraints>
  <constraint index="0" slack="-7"/>
  <constraint index="1" slack="0"/>
  <constraint index="2" slack="-3.5527136788005009e-15"/>
  <constraint index="3" slack="0"/>
  <constraint index="4" slack="0"/>
  <constraint index="5" slack="-4.0000000000000053"/>
  <constraint index="6" slack="-5.9999999999999911"/>
  <constraint index="7" slack="-1.7763568394002505e-15"/>
  <constraint index="8" slack="0"/>
  <constraint index="9" slack="0"/>
  <constraint index="10" slack="0"/>
  <constraint index="11" slack="0"/>
  <constraint index="12" slack="-7.1054273576010019e-15"/>
  <constraint index="13" slack="0"/>
  <constraint index="14" slack="0"/>
  <constraint index="15" slack="0"/>
  <constraint index="16" slack="0"/>
  <constraint index="17" slack="0"/>
  <constraint index="18" slack="0"/>
  <constraint index="19" slack="0"/>
  <constraint index="20" slack="0"/>
  <constraint index="21" slack="0"/>
  <constraint index="22" slack="0"/>
  <constraint index="23" slack="0"/>
  <constraint index="24" slack="0"/>
  <constraint index="25" slack="0"/>
  <constraint index="26" slack="0"/>
  <constraint index="27" slack="-1.9999999999999929"/>
  <constraint index="28" slack="-0.99999999999999112"/>
  <constraint index="29" slack="-2"/>
  <constraint index="30" slack="0"/>
  <constraint index="31" slack="0"/>
  <constraint index="32" slack="-4"/>
  <constraint index="33" slack="-4"/>
  <constraint index="34" slack="-3"/>
  <constraint index="35" slack="-3.0000000000000036"/>
  <constraint index="36" slack="-3"/>
  <constraint index="37" slack="-3"/>
  <constraint index="38" slack="-7.0000000000000036"/>
  <constraint index="39" slack="0"/>
  <constraint index="40" slack="-1"/>
  <constraint index="41" slack="0"/>
  <constraint index="42" slack="-2"/>
  <constraint index="43" slack="-3.0000000000000036"/>
  <constraint index="44" slack="-11.999999999999991"/>
  <constraint index="45" slack="0"/>
  <constraint index="46" slack="-1.7763568394002505e-15"/>
  <constraint index="47" slack="-7.9999999999999929"/>
  <constraint index="48" slack="-7.9999999999999956"/>
  <constraint index="49" slack="-1.9999999999999876"/>
  <constraint index="50" slack="0"/>
  <constraint index="51" slack="0"/>
  <constraint index="52" slack="-11.000000000000005"/>
  <constraint index="53" slack="-8"/>
  <constraint index="54" slack="-7.0000000000000053"/>
  <constraint index="55" slack="0"/>
  <constraint index="56" slack="-18.999999999999993"/>
  <constraint index="57" slack="-7.9999999999999964"/>
  <constraint index="58" slack="-14.999999999999993"/>
  <constraint index="59" slack="0"/>
  <constraint index="60" slack="-6.0000000000000071"/>
  <constraint index="61" slack="-14.999999999999986"/>
  <constraint index="62" slack="-7.0000000000000036"/>
  <constraint index="63" slack="-11"/>
  <constraint index="64" slack="-7"/>
  <constraint index="65" slack="-2"/>
  <constraint index="66" slack="-7"/>
  <constraint index="67" slack="-4.0000000000000036"/>
  <constraint index="68" slack="-3"/>
  <constraint index="69" slack="-7"/>
  <constraint index="70" slack="-3"/>
  <constraint index="71" slack="-9.0000000000000036"/>
  <constraint index="72" slack="-3"/>
  <constraint index="73" slack="-3"/>
  <constraint index="74" slack="-13"/>
  <constraint index="75" slack="-15.999999999999996"/>
  <constraint index="76" slack="-11"/>
  <constraint index="77" slack="-22"/>
  <constraint index="78" slack="-12"/>
  <constraint index="79" slack="-6.0000000000000071"/>
  <constraint index="80" slack="-15.999999999999996"/>
  <constraint index="81" slack="-7"/>
  <constraint index="82" slack="-1.0658141036401503e-14"/>
  <constraint index="83" slack="-5.9999999999999929"/>
  <constraint index="84" slack="-6.0000000000000142"/>
  <constraint index="85" slack="-5.9999999999999929"/>
  <constraint index="86" slack="-18"/>
  <constraint index="87" slack="-16"/>
  <constraint index="88" slack="-10"/>
  <constraint index="89" slack="-5.9999999999999929"/>
  <constraint index="90" slack="-12.000000000000002"/>
  <constraint index="91" slack="-7.1054273576010019e-15"/>
  <constraint index="92" slack="-13"/>
  <constraint index="93" slack="-5.9999999999999929"/>
  <constraint index="94" slack="-15"/>
  <constraint index="95" slack="-7.1054273576010019e-15"/>
  <constraint index="96" slack="0"/>
  <constraint index="97" slack="0"/>
  <constraint index="98" slack="-6"/>
  <constraint index="99" slack="-5.9999999999999964"/>
  <constraint index="100" slack="-16"/>
  <constraint index="101" slack="-16"/>
  <constraint index="102" slack="-16"/>
  <constraint index="103" slack="-20"/>
  <constraint index="104" slack="-5.9999999999999964"/>
  <constraint index="105" slack="-8"/>
  <constraint index="106" slack="-5.9999999999999964"/>
  <constraint index="107" slack="-12"/>
  <constraint index="108" slack="-18"/>
  <constraint index="109" slack="-10"/>
  <constraint index="110" slack="-23"/>
  <constraint index="111" slack="-5.9999999999999964"/>
  <constraint index="112" slack="-10"/>
  <constraint index="113" slack="-7.1054273576010019e-15"/>
  <constraint index="114" slack="-16"/>
  <constraint index="115" slack="-6"/>
  <constraint index="116" slack="-5.9999999999999947"/>
  <constraint index="117" slack="-7.1054273576010019e-15"/>
  <constraint index="118" slack="-16"/>
  <constraint index="119" slack="-5.9999999999999964"/>
  <constraint index="120" slack="-10"/>
  <constraint index="121" slack="-6"/>
 </linearConstraints>
 <variables>
  <variable name="x_0_0" index="0" value="0"/>
  <variable name="x_0_1" index="1" value="8.0000000000000036"/>
  <variable name="x_0_2" index="2" value="2"/>
  <variable name="x_0_3" index="3" value="12.999999999999991"/>
  <variable name="x_1_0" index="4" value="8"/>
  <variable name="x_1_1" index="5" value="0"/>
  <variable name="x_1_2" index="6" value="15.000000000000005"/>
  <variable name="x_1_3" index="7" value="22.999999999999993"/>
  <variable name="x_2_0" index="8" value="11"/>
  <variable name="x_2_1" index="9" value="13.000000000000004"/>
  <variable name="x_2_2" index="10" value="7"/>
  <variable name="x_2_3" index="11" value="3"/>
  <variable name="z_0_0_1" index="12" value="1"/>
  <variable name="z_0_0_2" index="13" value="1"/>
  <variable name="z_0_0_3" index="14" value="1"/>
  <variable name="z_0_1_2" index="15" value="-0"/>
  <variable name="z_0_1_3" index="16" value="0.99999999999999911"/>
  <variable name="z_0_2_3" index="17" value="0.99999999999999911"/>
  <variable name="z_1_0_1" index="18" value="0"/>
  <variable name="z_1_0_2" index="19" value="1"/>
  <variable name="z_1_0_3" index="20" value="0.99999999999999978"/>
  <variable name="z_1_1_2" index="21" value="1"/>
  <variable name="z_1_1_3" index="22" value="1"/>
  <variable name="z_1_2_3" index="23" value="0.99999999999999911"/>
  <variable name="z_2_0_1" index="24" value="1"/>
  <variable name="z_2_0_2" index="25" value="-0"/>
  <variable name="z_2_0_3" index="26" value="-0"/>
  <variable name="z_2_1_2" index="27" value="-0"/>
  <variable name="z_2_1_3" index="28" value="-0"/>
  <variable name="z_2_2_3" index="29" value="-0"/>
  <variable name="cmax" index="30" value="29"/>
  <variable name="q_0_0_1" index="31" value="53"/>
  <variable name="q_0_0_2" index="32" value="59"/>
  <variable name="q_0_0_3" index="33" value="43.000000000000007"/>
  <variable name="q_0_1_2" index="34" value="1.0000000000000036"/>
  <variable name="q_0_1_3" index="35" value="50.99999999999995"/>
  <variable name="q_0_2_3" index="36" value="44.99999999999995"/>
  <variable name="q_1_0_1" index="37" value="0"/>
  <variable name="q_1_0_2" index="38" value="50.999999999999993"/>
  <variable name="q_1_0_3" index="39" value="44.999999999999993"/>
  <variable name="q_1_1_2" index="40" value="42.999999999999993"/>
  <variable name="q_1_1_3" index="41" value="37.000000000000007"/>
  <variable name="q_1_2_3" index="42" value="51.999999999999957"/>
  <variable name="q_2_0_1" index="43" value="54"/>
  <variable name="q_2_0_2" index="44" value="0"/>
  <variable name="q_2_0_3" index="45" value="4"/>
  <variable name="q_2_1_2" index="46" value="2.0000000000000036"/>
  <variable name="q_2_1_3" index="47" value="6.0000000000000036"/>
  <variable name="q_2_2_3" index="48" value="0"/>
 </variables>
</CPLEXSolution>
